<?xml version="1.0" encoding="UTF-8"?><osil xmlns="os.optimizationservices.org" xmlns:xsi="http://www.w3.org/2001/XMLSchema-instance" xsi:schemaLocation="os.optimizationservices.org http://www.optimizationservices.org/schemas/2.0/OSiL.xsd"><instanceHeader><name>ex1263</name></instanceHeader><instanceData><variables numberOfVariables="92"><var name="x1" ub="5"/><var name="x2" ub="5"/><var name="x3" ub="5"/><var name="x4" ub="5"/><var name="x5" ub="5"/><var name="x6" ub="5"/><var name="x7" ub="5"/><var name="x8" ub="5"/><var name="x9" ub="5"/><var name="x10" ub="5"/><var name="x11" ub="5"/><var name="x12" ub="5"/><var name="x13" ub="5"/><var name="x14" ub="5"/><var name="x15" ub="5"/><var name="x16" ub="5"/><var name="b17" type="B" ub="1"/><var name="b18" type="B" ub="1"/><var name="b19" type="B" ub="1"/><var name="b20" type="B" ub="1"/><var name="b21" type="B" ub="1"/><var name="b22" type="B" ub="1"/><var name="b23" type="B" ub="1"/><var name="b24" type="B" ub="1"/><var name="b25" type="B" ub="1"/><var name="b26" type="B" ub="1"/><var name="b27" type="B" ub="1"/><var name="b28" type="B" ub="1"/><var name="b29" type="B" ub="1"/><var name="b30" type="B" ub="1"/><var name="b31" type="B" ub="1"/><var name="b32" type="B" ub="1"/><var name="b33" type="B" ub="1"/><var name="b34" type="B" ub="1"/><var name="b35" type="B" ub="1"/><var name="b36" type="B" ub="1"/><var name="b37" type="B" ub="1"/><var name="b38" type="B" ub="1"/><var name="b39" type="B" ub="1"/><var name="b40" type="B" ub="1"/><var name="b41" type="B" ub="1"/><var name="b42" type="B" ub="1"/><var name="b43" type="B" ub="1"/><var name="b44" type="B" ub="1"/><var name="b45" type="B" ub="1"/><var name="b46" type="B" ub="1"/><var name="b47" type="B" ub="1"/><var name="b48" type="B" ub="1"/><var name="b49" type="B" ub="1"/><var name="b50" type="B" ub="1"/><var name="b51" type="B" ub="1"/><var name="b52" type="B" ub="1"/><var name="b53" type="B" ub="1"/><var name="b54" type="B" ub="1"/><var name="b55" type="B" ub="1"/><var name="b56" type="B" ub="1"/><var name="b57" type="B" ub="1"/><var name="b58" type="B" ub="1"/><var name="b59" type="B" ub="1"/><var name="b60" type="B" ub="1"/><var name="b61" type="B" ub="1"/><var name="b62" type="B" ub="1"/><var name="b63" type="B" ub="1"/><var name="b64" type="B" ub="1"/><var name="b65" type="B" ub="1"/><var name="b66" type="B" ub="1"/><var name="b67" type="B" ub="1"/><var name="b68" type="B" ub="1"/><var name="x69" ub="30"/><var name="x70" ub="30"/><var name="x71" ub="30"/><var name="x72" ub="30"/><var name="b73" type="B" ub="1"/><var name="b74" type="B" ub="1"/><var name="b75" type="B" ub="1"/><var name="b76" type="B" ub="1"/><var name="b77" type="B" ub="1"/><var name="b78" type="B" ub="1"/><var name="b79" type="B" ub="1"/><var name="b80" type="B" ub="1"/><var name="b81" type="B" ub="1"/><var name="b82" type="B" ub="1"/><var name="b83" type="B" ub="1"/><var name="b84" type="B" ub="1"/><var name="b85" type="B" ub="1"/><var name="b86" type="B" ub="1"/><var name="b87" type="B" ub="1"/><var name="b88" type="B" ub="1"/><var name="b89" type="B" ub="1"/><var name="b90" type="B" ub="1"/><var name="b91" type="B" ub="1"/><var name="b92" type="B" ub="1"/></variables><objectives><obj maxOrMin="min" name="defObj_objvar" numberOfObjCoef="8"><coef idx="64">.1</coef><coef idx="65">.2</coef><coef idx="66">.3</coef><coef idx="67">.4</coef><coef idx="68">1</coef><coef idx="69">1</coef><coef idx="70">1</coef><coef idx="71">1</coef></obj></objectives><constraints numberOfConstraints="55"><con name="e2" lb="15"/><con name="e3" lb="28"/><con name="e4" lb="21"/><con name="e5" lb="30"/><con name="e6" ub="0"/><con name="e7" ub="0"/><con name="e8" ub="0"/><con name="e9" ub="0"/><con name="e10" ub="0"/><con name="e11" ub="0"/><con name="e12" ub="0"/><con name="e13" ub="0"/><con name="e14" ub="0"/><con name="e15" ub="0"/><con name="e16" ub="0"/><con name="e17" ub="0"/><con name="e18" ub="0"/><con name="e19" ub="0"/><con name="e20" ub="0"/><con name="e21" ub="0"/><con name="e22" ub="0"/><con name="e23" ub="0"/><con name="e24" ub="0"/><con name="e25" ub="0"/><con name="e26" ub="0"/><con name="e27" ub="0"/><con name="e28" ub="0"/><con name="e29" ub="0"/><con name="e30" lb="19"/><con name="e31" ub="0"/><con name="e32" ub="0"/><con name="e33" ub="0"/><con name="e34" ub="0"/><con name="e35" ub="0"/><con name="e36" ub="0"/><con name="e37" lb="0" ub="0"/><con name="e38" lb="0" ub="0"/><con name="e39" lb="0" ub="0"/><con name="e40" lb="0" ub="0"/><con name="e41" lb="0" ub="0"/><con name="e42" lb="0" ub="0"/><con name="e43" lb="0" ub="0"/><con name="e44" lb="0" ub="0"/><con name="e45" lb="0" ub="0"/><con name="e46" lb="0" ub="0"/><con name="e47" lb="0" ub="0"/><con name="e48" lb="0" ub="0"/><con name="e49" lb="0" ub="0"/><con name="e50" lb="0" ub="0"/><con name="e51" lb="0" ub="0"/><con name="e52" lb="0" ub="0"/><con name="e53" lb="0" ub="0"/><con name="e54" lb="0" ub="0"/><con name="e55" lb="0" ub="0"/><con name="e56" lb="0" ub="0"/></constraints><linearConstraintCoefficients numberOfValues="200"><start><el mult="5">0</el><el mult="16" incr="5">5</el><el mult="8" incr="2">82</el><el mult="7" incr="2">100</el><el mult="16" incr="4">116</el><el mult="4" incr="6">182</el></start><colIdx><el mult="4" incr="4">0</el><el>64</el><el mult="4" incr="4">1</el><el>65</el><el mult="4" incr="4">2</el><el>66</el><el mult="4" incr="4">3</el><el>67</el><el mult="4" incr="4">0</el><el>64</el><el mult="4" incr="4">1</el><el>65</el><el mult="4" incr="4">2</el><el>66</el><el mult="4" incr="4">3</el><el>67</el><el mult="4" incr="4">0</el><el>64</el><el mult="4" incr="4">1</el><el>65</el><el mult="4" incr="4">2</el><el>66</el><el mult="4" incr="4">3</el><el>67</el><el mult="4" incr="4">0</el><el>64</el><el mult="4" incr="4">1</el><el>65</el><el mult="4" incr="4">2</el><el>66</el><el mult="4" incr="4">3</el><el>67</el><el>64</el><el>68</el><el>65</el><el>69</el><el>66</el><el>70</el><el>67</el><el>71</el><el>64</el><el>68</el><el>65</el><el>69</el><el>66</el><el>70</el><el>67</el><el>71</el><el mult="4" incr="1">68</el><el>64</el><el mult="2">65</el><el mult="2">66</el><el mult="3" incr="1">67</el><el>69</el><el mult="2">70</el><el>71</el><el>0</el><el mult="3" incr="1">16</el><el>1</el><el mult="3" incr="1">19</el><el>2</el><el mult="3" incr="1">22</el><el>3</el><el mult="3" incr="1">25</el><el>4</el><el mult="3" incr="1">28</el><el>5</el><el mult="3" incr="1">31</el><el>6</el><el mult="3" incr="1">34</el><el>7</el><el mult="3" incr="1">37</el><el>8</el><el mult="3" incr="1">40</el><el>9</el><el mult="3" incr="1">43</el><el>10</el><el mult="3" incr="1">46</el><el>11</el><el mult="3" incr="1">49</el><el>12</el><el mult="3" incr="1">52</el><el>13</el><el mult="3" incr="1">55</el><el>14</el><el mult="3" incr="1">58</el><el>15</el><el mult="3" incr="1">61</el><el>68</el><el mult="5" incr="1">72</el><el>69</el><el mult="5" incr="1">77</el><el>70</el><el mult="5" incr="1">82</el><el>71</el><el mult="5" incr="1">87</el></colIdx><value><el>-2.9e2</el><el>-315</el><el>-3.5e2</el><el>-455</el><el>1.75e3</el><el>-2.9e2</el><el>-315</el><el>-3.5e2</el><el>-455</el><el>1.75e3</el><el>-2.9e2</el><el>-315</el><el>-3.5e2</el><el>-455</el><el>1.75e3</el><el>-2.9e2</el><el>-315</el><el>-3.5e2</el><el>-455</el><el>1.75e3</el><el>2.9e2</el><el>315</el><el>3.5e2</el><el>455</el><el>-1.85e3</el><el>2.9e2</el><el>315</el><el>3.5e2</el><el>455</el><el>-1.85e3</el><el>2.9e2</el><el>315</el><el>3.5e2</el><el>455</el><el>-1.85e3</el><el>2.9e2</el><el>315</el><el>3.5e2</el><el>455</el><el>-1.85e3</el><el mult="4">-1</el><el>1</el><el mult="4">-1</el><el>1</el><el mult="4">-1</el><el>1</el><el mult="4">-1</el><el mult="5">1</el><el>-5</el><el mult="4">1</el><el>-5</el><el mult="4">1</el><el>-5</el><el mult="4">1</el><el>-5</el><el>1</el><el>-1</el><el>1</el><el>-1</el><el>1</el><el>-1</el><el>1</el><el>-1</el><el>-30</el><el>1</el><el>-30</el><el>1</el><el>-30</el><el>1</el><el>-30</el><el mult="5">1</el><el>-1</el><el>1</el><el>-1</el><el>1</el><el>-1</el><el>1</el><el>-1</el><el>1</el><el>-1</el><el>1</el><el>-1</el><el mult="2">1</el><el>-1</el><el>-2</el><el>-4</el><el>1</el><el>-1</el><el>-2</el><el>-4</el><el>1</el><el>-1</el><el>-2</el><el>-4</el><el>1</el><el>-1</el><el>-2</el><el>-4</el><el>1</el><el>-1</el><el>-2</el><el>-4</el><el>1</el><el>-1</el><el>-2</el><el>-4</el><el>1</el><el>-1</el><el>-2</el><el>-4</el><el>1</el><el>-1</el><el>-2</el><el>-4</el><el>1</el><el>-1</el><el>-2</el><el>-4</el><el>1</el><el>-1</el><el>-2</el><el>-4</el><el>1</el><el>-1</el><el>-2</el><el>-4</el><el>1</el><el>-1</el><el>-2</el><el>-4</el><el>1</el><el>-1</el><el>-2</el><el>-4</el><el>1</el><el>-1</el><el>-2</el><el>-4</el><el>1</el><el>-1</el><el>-2</el><el>-4</el><el>1</el><el>-1</el><el>-2</el><el>-4</el><el>1</el><el>-1</el><el>-2</el><el>-4</el><el>-8</el><el>-16</el><el>1</el><el>-1</el><el>-2</el><el>-4</el><el>-8</el><el>-16</el><el>1</el><el>-1</el><el>-2</el><el>-4</el><el>-8</el><el>-16</el><el>1</el><el>-1</el><el>-2</el><el>-4</el><el>-8</el><el>-16</el></value></linearConstraintCoefficients><quadraticCoefficients numberOfQuadraticTerms="16"><qTerm idx="0" idxOne="0" idxTwo="68" coef="1"/><qTerm idx="0" idxOne="1" idxTwo="69" coef="1"/><qTerm idx="0" idxOne="2" idxTwo="70" coef="1"/><qTerm idx="0" idxOne="3" idxTwo="71" coef="1"/><qTerm idx="1" idxOne="4" idxTwo="68" coef="1"/><qTerm idx="1" idxOne="5" idxTwo="69" coef="1"/><qTerm idx="1" idxOne="6" idxTwo="70" coef="1"/><qTerm idx="1" idxOne="7" idxTwo="71" coef="1"/><qTerm idx="2" idxOne="8" idxTwo="68" coef="1"/><qTerm idx="2" idxOne="9" idxTwo="69" coef="1"/><qTerm idx="2" idxOne="10" idxTwo="70" coef="1"/><qTerm idx="2" idxOne="11" idxTwo="71" coef="1"/><qTerm idx="3" idxOne="12" idxTwo="68" coef="1"/><qTerm idx="3" idxOne="13" idxTwo="69" coef="1"/><qTerm idx="3" idxOne="14" idxTwo="70" coef="1"/><qTerm idx="3" idxOne="15" idxTwo="71" coef="1"/></quadraticCoefficients></instanceData></osil>